p cnf 185 540
e 1 2 3 0
a 4 5 6 0
e 7 8 9 0
a 10 11 12 0
e 13 14 15 16 17 18 19 20 21 22 23 24 0
e 25 26 27 28 29 30 31 32 33 34 35 36 37 38 39 40 41 42 43 44 45 46 47 48 49 50 51 52 53 54 55 56 57 58 59 60 61 62 63 64 65 66 67 68 69 70 71 72 73 74 75 76 77 78 79 80 81 82 83 84 85 86 87 88 89 90 91 92 93 94 95 96 97 98 99 100 101 102 103 104 105 106 107 108 109 110 111 112 113 114 115 116 117 118 119 120 121 122 123 124 125 126 127 128 129 130 131 132 133 134 135 136 137 138 139 140 141 142 143 144 145 146 147 148 149 150 151 152 153 154 155 156 157 158 159 160 161 162 163 164 165 166 167 168 169 170 171 172 173 174 175 176 177 178 179 180 181 182 183 184 185 0
7 25 0
-4 25 0
-7 4 -25 0
4 26 0
-7 26 0
-4 7 -26 0
25 -27 0
26 -27 0
-25 -26 27 0
8 28 0
-5 28 0
-8 5 -28 0
5 29 0
-8 29 0
-5 8 -29 0
28 -30 0
29 -30 0
-28 -29 30 0
9 31 0
-6 31 0
-9 6 -31 0
6 32 0
-9 32 0
-6 9 -32 0
31 -33 0
32 -33 0
-31 -32 33 0
27 -34 0
30 -34 0
33 -34 0
-27 -30 -33 34 0
13 35 0
-4 35 0
-13 4 -35 0
4 36 0
-13 36 0
-4 13 -36 0
35 -37 0
36 -37 0
-35 -36 37 0
14 38 0
-5 38 0
-14 5 -38 0
5 39 0
-14 39 0
-5 14 -39 0
38 -40 0
39 -40 0
-38 -39 40 0
15 41 0
-6 41 0
-15 6 -41 0
6 42 0
-15 42 0
-6 15 -42 0
41 -43 0
42 -43 0
-41 -42 43 0
37 -44 0
40 -44 0
43 -44 0
-37 -40 -43 44 0
13 45 0
-10 45 0
-13 10 -45 0
10 46 0
-13 46 0
-10 13 -46 0
45 -47 0
46 -47 0
-45 -46 47 0
14 48 0
-11 48 0
-14 11 -48 0
11 49 0
-14 49 0
-11 14 -49 0
48 -50 0
49 -50 0
-48 -49 50 0
15 51 0
-12 51 0
-15 12 -51 0
12 52 0
-15 52 0
-12 15 -52 0
51 -53 0
52 -53 0
-51 -52 53 0
47 -54 0
50 -54 0
53 -54 0
-47 -50 -53 54 0
16 55 0
-1 55 0
-16 1 -55 0
1 56 0
-16 56 0
-1 16 -56 0
55 -57 0
56 -57 0
-55 -56 57 0
17 58 0
-2 58 0
-17 2 -58 0
2 59 0
-17 59 0
-2 17 -59 0
58 -60 0
59 -60 0
-58 -59 60 0
18 61 0
-3 61 0
-18 3 -61 0
3 62 0
-18 62 0
-3 18 -62 0
61 -63 0
62 -63 0
-61 -62 63 0
57 -64 0
60 -64 0
63 -64 0
-57 -60 -63 64 0
16 65 0
-7 65 0
-16 7 -65 0
7 66 0
-16 66 0
-7 16 -66 0
65 -67 0
66 -67 0
-65 -66 67 0
17 68 0
-8 68 0
-17 8 -68 0
8 69 0
-17 69 0
-8 17 -69 0
68 -70 0
69 -70 0
-68 -69 70 0
18 71 0
-9 71 0
-18 9 -71 0
9 72 0
-18 72 0
-9 18 -72 0
71 -73 0
72 -73 0
-71 -72 73 0
67 -74 0
70 -74 0
73 -74 0
-67 -70 -73 74 0
16 75 0
-13 75 0
-16 13 -75 0
13 76 0
-16 76 0
-13 16 -76 0
75 -77 0
76 -77 0
-75 -76 77 0
17 78 0
-14 78 0
-17 14 -78 0
14 79 0
-17 79 0
-14 17 -79 0
78 -80 0
79 -80 0
-78 -79 80 0
18 81 0
-15 81 0
-18 15 -81 0
15 82 0
-18 82 0
-15 18 -82 0
81 -83 0
82 -83 0
-81 -82 83 0
77 -84 0
80 -84 0
83 -84 0
-77 -80 -83 84 0
-64 85 0
-74 85 0
-84 85 0
64 74 84 -85 0
19 86 0
-1 86 0
-19 1 -86 0
1 87 0
-19 87 0
-1 19 -87 0
86 -88 0
87 -88 0
-86 -87 88 0
20 89 0
-2 89 0
-20 2 -89 0
2 90 0
-20 90 0
-2 20 -90 0
89 -91 0
90 -91 0
-89 -90 91 0
21 92 0
-3 92 0
-21 3 -92 0
3 93 0
-21 93 0
-3 21 -93 0
92 -94 0
93 -94 0
-92 -93 94 0
88 -95 0
91 -95 0
94 -95 0
-88 -91 -94 95 0
19 96 0
-7 96 0
-19 7 -96 0
7 97 0
-19 97 0
-7 19 -97 0
96 -98 0
97 -98 0
-96 -97 98 0
20 99 0
-8 99 0
-20 8 -99 0
8 100 0
-20 100 0
-8 20 -100 0
99 -101 0
100 -101 0
-99 -100 101 0
21 102 0
-9 102 0
-21 9 -102 0
9 103 0
-21 103 0
-9 21 -103 0
102 -104 0
103 -104 0
-102 -103 104 0
98 -105 0
101 -105 0
104 -105 0
-98 -101 -104 105 0
19 106 0
-13 106 0
-19 13 -106 0
13 107 0
-19 107 0
-13 19 -107 0
106 -108 0
107 -108 0
-106 -107 108 0
20 109 0
-14 109 0
-20 14 -109 0
14 110 0
-20 110 0
-14 20 -110 0
109 -111 0
110 -111 0
-109 -110 111 0
21 112 0
-15 112 0
-21 15 -112 0
15 113 0
-21 113 0
-15 21 -113 0
112 -114 0
113 -114 0
-112 -113 114 0
108 -115 0
111 -115 0
114 -115 0
-108 -111 -114 115 0
-95 116 0
-105 116 0
-115 116 0
95 105 115 -116 0
22 117 0
-1 117 0
-22 1 -117 0
1 118 0
-22 118 0
-1 22 -118 0
117 -119 0
118 -119 0
-117 -118 119 0
23 120 0
-2 120 0
-23 2 -120 0
2 121 0
-23 121 0
-2 23 -121 0
120 -122 0
121 -122 0
-120 -121 122 0
24 123 0
-3 123 0
-24 3 -123 0
3 124 0
-24 124 0
-3 24 -124 0
123 -125 0
124 -125 0
-123 -124 125 0
119 -126 0
122 -126 0
125 -126 0
-119 -122 -125 126 0
22 127 0
-7 127 0
-22 7 -127 0
7 128 0
-22 128 0
-7 22 -128 0
127 -129 0
128 -129 0
-127 -128 129 0
23 130 0
-8 130 0
-23 8 -130 0
8 131 0
-23 131 0
-8 23 -131 0
130 -132 0
131 -132 0
-130 -131 132 0
24 133 0
-9 133 0
-24 9 -133 0
9 134 0
-24 134 0
-9 24 -134 0
133 -135 0
134 -135 0
-133 -134 135 0
129 -136 0
132 -136 0
135 -136 0
-129 -132 -135 136 0
22 137 0
-13 137 0
-22 13 -137 0
13 138 0
-22 138 0
-13 22 -138 0
137 -139 0
138 -139 0
-137 -138 139 0
23 140 0
-14 140 0
-23 14 -140 0
14 141 0
-23 141 0
-14 23 -141 0
140 -142 0
141 -142 0
-140 -141 142 0
24 143 0
-15 143 0
-24 15 -143 0
15 144 0
-24 144 0
-15 24 -144 0
143 -145 0
144 -145 0
-143 -144 145 0
139 -146 0
142 -146 0
145 -146 0
-139 -142 -145 146 0
-126 147 0
-136 147 0
-146 147 0
126 136 146 -147 0
-16 -148 0
-17 -148 0
-18 -148 0
16 17 18 148 0
16 -149 0
-17 -149 0
-18 -149 0
-16 17 18 149 0
-148 150 0
-149 150 0
148 149 -150 0
-19 -151 0
20 -151 0
-21 -151 0
19 -20 21 151 0
-19 -152 0
-20 -152 0
21 -152 0
19 20 -21 152 0
-151 153 0
-152 153 0
151 152 -153 0
148 154 0
-153 154 0
-148 153 -154 0
-16 -155 0
-17 -155 0
18 -155 0
16 17 -18 155 0
155 156 0
-152 156 0
-155 152 -156 0
-16 -157 0
17 -157 0
-18 -157 0
16 -17 18 157 0
-19 -158 0
-20 -158 0
-21 -158 0
19 20 21 158 0
-19 -159 0
20 -159 0
21 -159 0
19 -20 -21 159 0
19 -160 0
-20 -160 0
-21 -160 0
-19 20 21 160 0
-158 161 0
-159 161 0
-152 161 0
-160 161 0
158 159 152 160 -161 0
157 162 0
-161 162 0
-157 161 -162 0
-16 -163 0
17 -163 0
18 -163 0
16 -17 -18 163 0
163 164 0
-159 164 0
-163 159 -164 0
149 165 0
-151 165 0
-149 151 -165 0
-22 -166 0
23 -166 0
-24 -166 0
22 -23 24 166 0
-22 -167 0
-23 -167 0
24 -167 0
22 23 -24 167 0
-166 168 0
-167 168 0
166 167 -168 0
158 169 0
-168 169 0
-158 168 -169 0
152 170 0
-167 170 0
-152 167 -170 0
-22 -171 0
-23 -171 0
-24 -171 0
22 23 24 171 0
-22 -172 0
23 -172 0
24 -172 0
22 -23 -24 172 0
22 -173 0
-23 -173 0
-24 -173 0
-22 23 24 173 0
-171 174 0
-172 174 0
-167 174 0
-173 174 0
171 172 167 173 -174 0
151 175 0
-174 175 0
-151 174 -175 0
159 176 0
-172 176 0
-159 172 -176 0
160 177 0
-166 177 0
-160 166 -177 0
-167 178 0
-172 178 0
167 172 -178 0
1 -179 0
-2 -179 0
-3 -179 0
-1 2 3 179 0
1 180 0
-179 180 0
-1 179 -180 0
7 -181 0
-8 -181 0
-9 -181 0
-7 8 9 181 0
7 182 0
-181 182 0
-7 181 -182 0
13 -183 0
-14 -183 0
-15 -183 0
-13 14 15 183 0
13 184 0
-183 184 0
-13 183 -184 0
-34 -185 0
-44 -185 0
-54 -185 0
85 -185 0
116 -185 0
147 -185 0
150 -185 0
154 -185 0
156 -185 0
162 -185 0
164 -185 0
165 -185 0
169 -185 0
170 -185 0
175 -185 0
176 -185 0
177 -185 0
178 -185 0
180 -185 0
182 -185 0
184 -185 0
34 44 54 -85 -116 -147 -150 -154 -156 -162 -164 -165 -169 -170 -175 -176 -177 -178 -180 -182 -184 185 0
185 0

